&control
 calculation = 'vc-relax'
 tstress = .true.
 outdir = './'
 pseudo_dir = '../../../Pseudopotential'
 prefix = 'FAPbI83_vcrelax'
 verbosity = 'low'
 forc_conv_thr = 1.0D-4
 etot_conv_thr = 1.0D-5
 nstep = 200
 max_seconds = 256000 
/
&system
 ibrav = 0,
 nat = 96,
 ntyp = 5,
 ecutwfc = 120,
 occupations = 'fixed',
 vdw_corr = 'DFT-D3'
/
&electrons
 conv_thr = 1.0d-7
/
&ions
 ion_dynamics = 'bfgs',
/
&cell
 cell_dynamics = 'bfgs',
 cell_dofree = 'xyz'
/
ATOMIC_SPECIES
 Pb	207.976	Pb.pbe-dn-kjpaw_psl.1.0.0.UPF
 I	126.904	I.pbe-n-kjpaw_psl.1.0.0.UPF
 C	12.000	C.pbe-n-kjpaw_psl.1.0.0.UPF
 N	14.003	N.pbe-n-kjpaw_psl.1.0.0.UPF
 H	1.007	H.pbe-kjpaw_psl.1.0.0.UPF
ATOMIC_POSITIONS (crystal)
Pb      -0.012441092  -0.023871364   0.007914009 0 0 0
Pb       0.486127180  -0.018666928   0.002261476 0 0 0
Pb      -0.014256292   0.481819570   0.009965562 0 0 0
Pb       0.023197996  -0.018371430   0.512061181 0 0 0
Pb       0.487182601   0.482649918  -0.003781880 0 0 0
Pb       0.020749614   0.477979513   0.506147789 0 0 0
Pb       0.525694008  -0.017784955   0.503012555 0 0 0
Pb       0.520311617   0.485398979   0.500179968 0 0 0
I        0.236802729  -0.009311300  -0.041293640 0 0 0
I        0.737084509  -0.004452818   0.043273878 0 0 0
I        0.235457186   0.487906753   0.059047384 0 0 0
I        0.271773942  -0.030474984   0.526432591 0 0 0
I        0.736237747   0.489876203  -0.052827831 0 0 0
I        0.272098928   0.473836031   0.460636116 0 0 0
I        0.771852654  -0.017431164   0.480090933 0 0 0
I        0.772534567   0.461717125   0.539769392 0 0 0
I       -0.029047600   0.233140193   0.008014837 0 0 0
I        0.470520124   0.232261105   0.008575002 0 0 0
I       -0.030928449   0.732599426   0.002456495 0 0 0
I        0.042656606   0.229807834   0.503633040 0 0 0
I        0.469948485   0.732663072  -0.000920343 0 0 0
I        0.025039501   0.728727015   0.511745118 0 0 0
I        0.532381895   0.231116806   0.503928954 0 0 0
I        0.541835931   0.731364839   0.504319627 0 0 0
I        0.035546498  -0.032932408   0.258307605 0 0 0
I        0.469570489  -0.021394020   0.253977610 0 0 0
I       -0.051032907   0.483811935   0.258039371 0 0 0
I       -0.041398965  -0.018546449   0.758604983 0 0 0
I        0.552027250   0.482960086   0.247070295 0 0 0
I        0.050714830   0.478055017   0.758344638 0 0 0
I        0.533051657  -0.024176564   0.755337833 0 0 0
I        0.456543875   0.469120332   0.748223225 0 0 0
C        0.236185019   0.251186157   0.250973852
C        0.763205476   0.254526373   0.276990065
C        0.245903748   0.734216458   0.294218758
C        0.258423903   0.251288735   0.733709811
C        0.750781402   0.792456418   0.252237165
C        0.254189952   0.772246580   0.747272260
C        0.733484461   0.252553787   0.755937269
C        0.758896244   0.751109653   0.735400754
N        0.203771061   0.197011144   0.169498338
N        0.692833434   0.235459213   0.203490682
N        0.163897755   0.679145680   0.264997452
N        0.187412477   0.234089296   0.807043205
N        0.664729215   0.743241687   0.223434095
N        0.176202226   0.731516339   0.801423771
N        0.704717355   0.202442321   0.841443913
N        0.688514400   0.743661124   0.810959516
N        0.314245852   0.224568388   0.313340477
N        0.847343824   0.197756081   0.294722077
N        0.341890651   0.720376230   0.258192827
N        0.339408705   0.190717267   0.714247984
N        0.840267626   0.748329928   0.278264768
N        0.328595798   0.718404950   0.700488007
N        0.810434208   0.224020002   0.693072223
N        0.836203189   0.684817317   0.720721263
H        0.195925026   0.324282830   0.268326312
H        0.750876040   0.322658292   0.327055999
H        0.233975446   0.795737437   0.352598791
H        0.249332822   0.321055306   0.685371879
H        0.747674094   0.877220633   0.254824453
H        0.257392171   0.856843986   0.740399760
H        0.690665305   0.323503530   0.735609169
H        0.752802170   0.816863928   0.681097291
H        0.237518606   0.128442775   0.146977808
H        0.698750165   0.173113060   0.153357710
H        0.169743565   0.619313781   0.211743901
H        0.190700641   0.170711252   0.855987249
H        0.657041492   0.663779683   0.221998558
H        0.163184055   0.652975688   0.805889727
H        0.740651535   0.135896395   0.866786823
H        0.689241209   0.683661621   0.864146517
H        0.141603398   0.222716610   0.124862809
H        0.630522134   0.285005564   0.195067805
H        0.094187480   0.690186830   0.303118230
H        0.127042509   0.285826148   0.816176447
H        0.600292152   0.785793657   0.202811662
H        0.122154353   0.777989548   0.837584852
H        0.642897822   0.228707126   0.885950318
H        0.629790759   0.797799679   0.815369338
H        0.356780012   0.157631343   0.303080599
H        0.865361427   0.132684431   0.252333566
H        0.359580260   0.666084481   0.202216454
H        0.354033056   0.124132643   0.755508572
H        0.853550611   0.669625591   0.275287473
H        0.336099852   0.639294325   0.707772417
H        0.854597740   0.158360847   0.705879006
H        0.846047018   0.620723653   0.767128200
H        0.333433811   0.271816535   0.375086246
H        0.898266836   0.217226300   0.354244918
H        0.399516333   0.771095958   0.280321467
H        0.391960018   0.209911747   0.655987778
H        0.902539106   0.795367467   0.296594718
H        0.385289287   0.755138968   0.657098200
H        0.826443594   0.268541021   0.628342567
H        0.888223907   0.696062746   0.660049318
K_POINTS automatics
4 4 4 1 1 1
CELL_PARAMETERS (angstrom)
  12.693954827   0.000000000   0.000000000
   0.000000000  12.854250328   0.000000000
   0.000000000   0.000000000  12.687649806
